
Gurobi 6.5.2 (linux64) logging started Mon Aug 29 10:57:53 2016

Optimize a model with 101 rows, 418 columns and 1103 nonzeros
Coefficient statistics:
  Matrix range    [1e+00, 2e+00]
  Objective range [4e+00, 1e+02]
  Bounds range    [1e+00, 1e+00]
  RHS range       [1e+00, 1e+00]
Found heuristic solution: objective 3246
Presolve removed 29 rows and 1 columns
Presolve time: 0.00s
Presolved: 72 rows, 417 columns, 896 nonzeros
Variable types: 0 continuous, 417 integer (417 binary)

Root relaxation: objective 1.213000e+03, 74 iterations, 0.00 seconds

    Nodes    |    Current Node    |     Objective Bounds      |     Work
 Expl Unexpl |  Obj  Depth IntInf | Incumbent    BestBd   Gap | It/Node Time

     0     0 1213.00000    0    2 3246.00000 1213.00000  62.6%     -    0s
H    0     0                    1380.0000000 1213.00000  12.1%     -    0s
H    0     0                    1235.0000000 1213.00000  1.78%     -    0s
     0     0     cutoff    0      1235.00000 1234.00124  0.08%     -    0s

Cutting planes:
  Gomory: 1
  Cover: 1

Explored 0 nodes (79 simplex iterations) in 0.01 seconds
Thread count was 8 (of 8 available processors)

Optimal solution found (tolerance 1.00e-04)
Best objective 1.235000000000e+03, best bound 1.235000000000e+03, gap 0.0%
